
  32   50
   4   19    4   10    6   10    6   12    2   10   15   15   11   11    8    4   10    8    7   19   10   15    9   12   10   18   12    2    9   10   12   15    0    0    0    0    0    0    0    0    0    0    0    0    0    0    0    0    0    0

   0   0   0   0   0   0   0   0   0   0   0   0   0   0   0   0   0   0   0   0   0   0   0   0   0   0   0   0   0   0   0   0   0   0   0   0   0   0   0   0   0   0   0   0   0   0   0   0   0   0   0  10 2 3 4 5 7 8 10 11 12 18 
   4   0   0   0   0   0   0   0   9   0   0   0   2   0   0   0   0   0   0   0   6   0   0   0   1   0   0   0   0   0   6   0   0   0   0   0   0   0   0   0   0   0   0   0   0   0   0   0   0   0   0   7 22 21 20 16 15 14 9 
  10   0   0   0   0   0   0   3   0   0   0  10   0   0   0   0   0   0   8   0   0   0   0   0   0   0   0   0   0   0   0   0   0   0   0   0   0   0   0   0   0   0   0   0   0   0   0   0   0   0   0   5 31 20 17 13 6 
  10   0   0   0   0   3   0   0   0   0   0   0   0   0   0   0   0   0   0   0   0   0   0   0   0   6   0   0   0   0   0  10   0   0   0   0   0   0   0   0   0   0   0   0   0   0   0   0   0   0   0   7 30 29 25 23 21 20 19 
   8   0   0   0   5   5   0   0   0   0   0   0   0   0   0   0   0   0   0   0   0   0   0   0   0   0   1   0   0   0   0   0   0   0   0   0   0   0   0   0   0   0   0   0   0   0   0   0   0   0   0   6 31 29 28 26 25 13 
   4   0   6   0   0   0   0   0   0   0   0   0   0   0   0   6   0   0   0   7   0   0   0   0   0   0   0   5   0   0   3   0   0   0   0   0   0   0   0   0   0   0   0   0   0   0   0   0   0   0   0   5 28 27 22 15 14 
   8   0  10   0   0   0   0   0   0   0   0   0   0   0   0   6   0   0   0   0   0   0   0   0   4   0   0   0   0   0   0   0  10   0   0   0   0   0   0   0   0   0   0   0   0   0   0   0   0   0   0   5 26 21 20 16 14 
   8   0   0   0   0   0   0   2   6   0   0   0   0   0   0   0   0   0   0   0   0   0   0   0   0   4   1   0   0   0   0   0   0   0   0   0   0   0   0   0   0   0   0   0   0   0   0   0   0   0   0   4 31 29 15 13 
   4   0   8   0   0   0   0   0   0   0   0   0   0   0   0   0   0   0   0   0   0   9   0   0   0   0   4   0   0   0   0   0   0   0   0   0   0   0   0   0   0   0   0   0   0   0   0   0   0   0   0   8 31 30 29 26 25 24 23 19 
  10   0   3   0   0   0   0   0   0   0   7   0   0   0   0   0   1   0   0   0   0   0   0   0   0   0   0   6   0   0   1   0   0   0   0   0   0   0   0   0   0   0   0   0   0   0   0   0   0   0   0   3 29 21 14 
   8   0   0   0   0   0   0   0   0   0   0   8   0   0   0   0   0   0   0   0   0   0   0   0   0   0   0   0   0   0   0   0   7   0   0   0   0   0   0   0   0   0   0   0   0   0   0   0   0   0   0   6 29 28 27 26 25 23 
   4   4  10   3   0   0   0   0   0   0   0   0   0   0   0   0   0   0   0   0   0   0   0   1   9   0   0   0   0   0   0   0   0   0   0   0   0   0   0   0   0   0   0   0   0   0   0   0   0   0   0   5 28 26 25 24 23 
  10   0   0   0   0   0   0   0   0   0   0   8   1   0   3   0   0   0   7   0   0   0   0   0   0   0   0   0   0   0   0   0   4   0   0   0   0   0   0   0   0   0   0   0   0   0   0   0   0   0   0   3 24 23 19 
   9   0   0   0   0   0   0   0   2   0   0   0   0   0   0   0   0   0   0   0   7   0   5   0   0   0   9   0   0   0   0   0   9   0   0   0   0   0   0   0   0   0   0   0   0   0   0   0   0   0   0   3 30 25 23 
   2   0   0   0  10   1   0   0   0   0   2   0   0   0   0   0   0   0   0   0   0   0   0   0   0   0   0   0   0   0   0   0   0   0   0   0   0   0   0   0   0   0   0   0   0   0   0   0   0   0   0   3 26 25 23 
   1   0   0   0   0   0   0   0   0   0   0   9   0   0   0   0   0   0   0   0   9   0   0   0   0   0   0   0   0   0   0   0   0   0   0   0   0   0   0   0   0   0   0   0   0   0   0   0   0   0   0   2 24 23 
   6   0   0   0   0   0   0   0   0   0   0   0   0   0   2   4   0   0   0   0   0   0   0   0   0   0   0   0   0   6   0   0   0   0   0   0   0   0   0   0   0   0   0   0   0   0   0   0   0   0   0   2 26 23 
   4   0   1   0   0   0   3   0   0   0   1   0   2   0   4   0   0  10   0   0   8   0   0   0   0   0   0   0   0   0   0   4   0   0   0   0   0   0   0   0   0   0   0   0   0   0   0   0   0   0   0   2 29 23 
   5   2   0   0   0   0   0   0   0   0   0   0   0   0   0   0   0   0   0   0   8   5   0   0   0   0   0   0   0   0  10   0   0   0   0   0   0   0   0   0   0   0   0   0   0   0   0   0   0   0   0   1 27 
  10   0   0   1   0   0   0   0   0   0   6   0   0   8   0   0   0   0   0   0   0   0   0   0   0   0   9   0   0   0   0   1   6   0   0   0   0   0   0   0   0   0   0   0   0   0   0   0   0   0   0   1 28 
   3   0   0   0   0   0   0   0   0   0   5   8   8   0   0   0   0   0   0   0   0   0   9   0   0   0   0   2   0   0   0   0   8   0   0   0   0   0   0   0   0   0   0   0   0   0   0   0   0   0   0   1 24 
   8   0   3   4   0   0   7   0   0   0   0   0   0   4   0   0   0   0   0   0   0   1   0   0   0   0   0   0   0   0   0   0   0   0   0   0   0   0   0   0   0   0   0   0   0   0   0   0   0   0   0   1 24 
   2   0   0   0   2   5   0   5   6   0   0  10   0   0   0   0   0   0   0   5   0   0   0   0   0   0   0   0   0   0   0   0   2   0   0   0   0   0   0   0   0   0   0   0   0   0   0   0   0   0   0   1 32
   8   0   0   0   0   0   5   0   0   0   0   0   0   0   0   0   0   0   0   1   0   0   0   2   1   0   0   0   2   0   0   0   5   0   0   0   0   0   0   0   0   0   0   0   0   0   0   0   0   0   0   1 32
   6   0   7   0   0   0   0   0   0   0   9   0   0   0   0   0   0   0   0   0   0   6   0   0   0   0   0   2   0   0   0   6   0   0   0   0   0   0   0   0   0   0   0   0   0   0   0   0   0   0   0   1 32
   9   0   0   0   2   0   0   0   0   0   0   0   0   2   0   0   0   0   0   0   0   0   0   0   0   0   5   0   0   9   0   0   0   0   0   0   0   0   0   0   0   0   0   0   0   0   0   0   0   0   0   1 32
   9   2   0   0   0   0   0   6   0   2   0   0   0   0   5   0   0   8   6   0   0   0   2   0   0  10   0   0   0   0   0   0   9   0   0   0   0   0   0   0   0   0   0   0   0   0   0   0   0   0   0   1 32
   8   0   0   0   0   0   6   0   5   0   0   0   0   0   0   0   4   0   0   0  10   0   6   0   0   0   0   0   0   0   0   0   2   0   0   0   0   0   0   0   0   0   0   0   0   0   0   0   0   0   0   1 32
  10   0   0   0   0   0   0   0   0   0   0   0   6   0   0   0   0   0   0   0   0   0   3   0   0   0   0   0   0   0   0   0   0   0   0   0   0   0   0   0   0   0   0   0   0   0   0   0   0   0   0   1 32
   4   3   0   0   0   0   0   0   0   0   0   0   0   6   8   0   0   0   0   0   0   0  10   8   0   0   0   0   0   0   0   0   0   0   0   0   0   0   0   0   0   0   0   0   0   0   0   0   0   0   0   1 32
   1   0   8   0   0   0   0   0   0   0   0   0   4   0   0   0   0   8   0   0   0   0   0   0   0   0   0   8   1   0   0   0   0   0   0   0   0   0   0   0   0   0   0   0   0   0   0   0   0   0   0   1 32
   0   0   0   0   0   0   0   0   0   0   0   0   0   0   0   0   0   0   0   0   0   0   0   0   0   0   0   0   0   0   0   0   0   0   0   0   0   0   0   0   0   0   0   0   0   0   0   0   0   0   0   0 
